
Gurobi 13.0.1 (linux64) logging started Tue Apr  7 13:58:54 2026

Set parameter LogFile to value "logs_sparse/50B_6F_robust_gamma_0d025_theta_0d05199999999999999_2026-04-07_13h58m42s.log"
Set parameter MIPGap to value 0.005
Set parameter OptimalityTol to value 0.005
Gurobi Optimizer version 13.0.1 build v13.0.1rc0 (linux64 - "Linux Mint 22")

CPU model: 12th Gen Intel(R) Core(TM) i7-12700, instruction set [SSE2|AVX|AVX2]
Thread count: 20 physical cores, 20 logical processors, using up to 20 threads

Non-default parameters:
TimeLimit  3600
SoftMemLimit  12
MIPGap  0.005
OptimalityTol  0.005

Optimize a model with 60351 rows, 780571 columns and 2406497 nonzeros (Max)
Model fingerprint: 0x0f14b0db
Model has 735061 linear objective coefficients
Variable types: 15571 continuous, 765000 integer (765000 binary)
Coefficient statistics:
  Matrix range     [3e-05, 1e+05]
  Objective range  [1e+00, 3e+03]
  Bounds range     [1e+00, 1e+05]
  RHS range        [8e-03, 1e+05]

Presolve removed 31036 rows and 564382 columns
Presolve time: 1.58s
Presolved: 29315 rows, 216189 columns, 690485 nonzeros
Variable types: 7281 continuous, 208908 integer (208908 binary)
Found heuristic solution: objective -3.88501e+08
Found heuristic solution: objective -3.86459e+08
Deterministic concurrent LP optimizer: primal simplex, dual simplex, and barrier
Showing barrier log only...

Root barrier log...

Ordering time: 0.42s

Barrier statistics:
 AA' NZ     : 4.006e+05
 Factor NZ  : 3.152e+06 (roughly 120 MB of memory)
 Factor Ops : 6.047e+08 (less than 1 second per iteration)
 Threads    : 18

                  Objective                Residual
Iter       Primal          Dual         Primal    Dual     Compl     Time
   0  -1.12182042e+13  1.05145384e+09  1.55e+08 5.12e+02  1.53e+08     3s
   1  -2.47233126e+12  3.28618692e+09  3.42e+07 3.85e+02  3.40e+07     3s
   2  -1.52198718e+10  2.43269935e+09  2.29e+05 7.86e-11  2.30e+05     3s
   3  -3.33966171e+08  1.42879792e+09  3.46e+03 1.09e-10  6.77e+03     3s
   4   4.24751699e+07  8.89515122e+08  1.10e+03 4.82e-11  2.59e+03     3s
   5   1.09845533e+08  7.08732213e+08  1.97e+02 4.87e-11  1.46e+03     3s
   6   1.26507398e+08  2.09010272e+08  2.61e+01 4.73e-11  1.99e+02     3s
   7   1.30195567e+08  1.54992877e+08  1.31e+01 6.46e-11  6.21e+01     3s
   8   1.31992493e+08  1.42439201e+08  4.77e+00 9.50e-11  2.53e+01     3s
   9   1.32777771e+08  1.35562488e+08  1.19e+00 6.43e-11  6.47e+00     3s
  10   1.32895467e+08  1.34286886e+08  8.35e-01 4.29e-10  3.17e+00     3s
  11   1.33050669e+08  1.33673203e+08  2.75e-01 3.83e-10  1.40e+00     3s
  12   1.33152203e+08  1.33417295e+08  7.90e-02 2.89e-10  5.94e-01     3s
  13   1.33192112e+08  1.33279922e+08  2.08e-02 2.41e-10  1.96e-01     3s
  14   1.33202150e+08  1.33247145e+08  9.38e-03 2.90e-10  1.01e-01     3s
  15   1.33208929e+08  1.33231825e+08  2.81e-03 2.13e-10  5.12e-02     3s
  16   1.33210367e+08  1.33225827e+08  1.79e-03 3.16e-10  3.46e-02     3s
  17   1.33211909e+08  1.33221225e+08  8.29e-04 3.52e-10  2.08e-02     4s
  18   1.33212358e+08  1.33219410e+08  5.61e-04 4.26e-10  1.58e-02     4s
  19   1.33212584e+08  1.33217019e+08  4.27e-04 4.27e-10  9.92e-03     4s
  20   1.33212921e+08  1.33216343e+08  2.63e-04 4.51e-10  7.66e-03     4s
  21   1.33213190e+08  1.33215642e+08  1.28e-04 4.04e-10  5.49e-03     4s
  22   1.33213293e+08  1.33214752e+08  7.69e-05 4.01e-10  3.26e-03     4s
  23   1.33213311e+08  1.33214313e+08  6.92e-05 3.75e-10  2.24e-03     4s
  24   1.33213373e+08  1.33214157e+08  4.36e-05 3.87e-10  1.75e-03     4s
  25   1.33213398e+08  1.33214049e+08  3.35e-05 3.21e-10  1.45e-03     4s
  26   1.33213423e+08  1.33213916e+08  2.27e-05 3.82e-10  1.10e-03     4s
  27   1.33213448e+08  1.33213804e+08  1.29e-05 3.57e-10  7.97e-04     4s
  28   1.33213461e+08  1.33213644e+08  8.09e-06 3.35e-10  4.10e-04     4s
  29   1.33213470e+08  1.33213600e+08  5.04e-06 3.65e-10  2.92e-04     4s
  30   1.33213477e+08  1.33213544e+08  2.90e-06 2.86e-10  1.51e-04     4s
  31   1.33213479e+08  1.33213530e+08  2.37e-06 3.22e-10  1.16e-04     4s
  32   1.33213483e+08  1.33213516e+08  1.21e-06 3.12e-10  7.34e-05     4s
  33   1.33213485e+08  1.33213505e+08  8.71e-07 3.36e-10  4.54e-05     4s
  34   1.33213487e+08  1.33213496e+08  5.33e-07 2.90e-10  2.07e-05     4s
  35   1.33213488e+08  1.33213494e+08  2.44e-07 3.01e-10  1.24e-05     4s
  36   1.33213489e+08  1.33213491e+08  1.38e-07 2.44e-10  4.82e-06     4s
  37   1.33213490e+08  1.33213490e+08  3.32e-08 2.59e-10  1.34e-06     4s
  38   1.33213490e+08  1.33213490e+08  1.48e-08 2.68e-10  4.98e-07     4s
  39   1.33213490e+08  1.33213490e+08  3.28e-09 2.53e-10  1.20e-07     5s
  40   1.33213490e+08  1.33213490e+08  5.07e-10 2.27e-10  2.17e-08     5s
  41   1.33213490e+08  1.33213490e+08  4.01e-08 2.21e-10  1.29e-09     5s

Barrier solved model in 41 iterations and 4.60 seconds (6.61 work units)
Optimal objective 1.33213490e+08


Root crossover log...

       0 PPushes remaining with PInf 4.2966451e-05                 5s

  Push phase complete: Pinf 4.2966451e-05, Dinf 4.3927831e+05      5s


Root simplex log...

Iteration    Objective       Primal Inf.    Dual Inf.      Time
   14947    1.3321349e+08   0.000000e+00   4.392780e+05      5s
   25248    1.3321349e+08   0.000000e+00   0.000000e+00      8s
Crossover time: 3.02 seconds (3.94 work units)
Concurrent spin time: 0.07s

Solved with barrier

Root relaxation: objective 1.332135e+08, 25248 iterations, 5.69 seconds (7.21 work units)

    Nodes    |    Current Node    |     Objective Bounds      |     Work
 Expl Unexpl |  Obj  Depth IntInf | Incumbent    BestBd   Gap | It/Node Time

     0     0 1.3321e+08    0 3661 -3.865e+08 1.3321e+08   134%     -    8s
H    0     0                    -1.78900e+08 1.3321e+08   174%     -   10s
H    0     0                    -1.10472e+08 1.3321e+08   221%     -   10s
H    0     0                    -6.73967e+07 1.3321e+08   298%     -   14s
H    0     0                    -2.77813e+07 1.3321e+08   580%     -   16s
H    0     0                    -2096366.009 1.3321e+08  6454%     -   17s
H    0     0                    1.959012e+07 1.3321e+08   580%     -   18s
H    0     0                    4.988680e+07 1.3321e+08   167%     -   22s
H    0     0                    6.465014e+07 1.3321e+08   106%     -   22s
     0     0 1.3321e+08    0 5358 6.4650e+07 1.3321e+08   106%     -   76s
H    0     0                    6.465315e+07 1.3321e+08   106%     -   79s
H    0     0                    6.465908e+07 1.3321e+08   106%     -   81s
H    0     0                    7.699269e+07 1.3321e+08  73.0%     -   82s
H    0     0                    7.699273e+07 1.3321e+08  73.0%     -   85s
H    0     0                    7.737041e+07 1.3321e+08  72.2%     -   88s
H    0     0                    7.791450e+07 1.3321e+08  71.0%     -   88s
H    0     0                    8.503977e+07 1.3321e+08  56.6%     -   93s
H    0     0                    8.512744e+07 1.3321e+08  56.5%     -   93s
     0     0 1.3321e+08    0 5473 8.5127e+07 1.3321e+08  56.5%     -  112s
     0     0 1.3321e+08    0 3987 8.5127e+07 1.3321e+08  56.5%     -  239s
H    0     0                    1.223201e+08 1.3321e+08  8.91%     -  254s
H    0     0                    1.228535e+08 1.3321e+08  8.43%     -  258s
H    0     0                    1.268391e+08 1.3321e+08  5.03%     -  286s
H    0     0                    1.272706e+08 1.3321e+08  4.67%     -  287s
H    0     0                    1.273527e+08 1.3321e+08  4.60%     -  293s
H    0     0                    1.277125e+08 1.3321e+08  4.31%     -  315s
H    0     0                    1.291787e+08 1.3321e+08  3.12%     -  337s
H    0     0                    1.294307e+08 1.3321e+08  2.92%     -  343s
H    0     0                    1.295213e+08 1.3321e+08  2.85%     -  361s
H    0     0                    1.298027e+08 1.3321e+08  2.63%     -  365s
H    0     0                    1.298523e+08 1.3321e+08  2.59%     -  382s
H    0     0                    1.299827e+08 1.3321e+08  2.49%     -  389s
H    0     0                    1.299834e+08 1.3321e+08  2.48%     -  415s
H    0     0                    1.299888e+08 1.3321e+08  2.48%     -  436s
H    0     0                    1.305418e+08 1.3321e+08  2.05%     -  454s
H    0     0                    1.305419e+08 1.3321e+08  2.05%     -  474s
H    0     0                    1.305722e+08 1.3321e+08  2.02%     -  507s
H    0     0                    1.306061e+08 1.3321e+08  2.00%     -  533s
H    0     0                    1.306693e+08 1.3321e+08  1.95%     -  533s
H    0     0                    1.306697e+08 1.3321e+08  1.95%     -  533s
H    0     0                    1.307026e+08 1.3321e+08  1.92%     -  552s
H    0     0                    1.307468e+08 1.3321e+08  1.89%     -  552s
     0     0 1.3321e+08    0 3670 1.3075e+08 1.3321e+08  1.89%     -  592s
     0     0 1.3321e+08    0 4950 1.3075e+08 1.3321e+08  1.89%     -  670s
H    0     0                    1.307478e+08 1.3321e+08  1.89%     -  672s
H    0     0                    1.307486e+08 1.3321e+08  1.88%     -  674s
H    0     0                    1.307502e+08 1.3321e+08  1.88%     -  676s
H    0     0                    1.307503e+08 1.3321e+08  1.88%     -  677s
H    0     0                    1.308172e+08 1.3321e+08  1.83%     -  678s
H    0     0                    1.308199e+08 1.3321e+08  1.83%     -  686s
H    0     0                    1.308225e+08 1.3321e+08  1.83%     -  686s
H    0     0                    1.308227e+08 1.3321e+08  1.83%     -  702s
H    0     0                    1.308232e+08 1.3321e+08  1.83%     -  702s
H    0     0                    1.308394e+08 1.3321e+08  1.81%     -  702s
H    0     0                    1.308401e+08 1.3321e+08  1.81%     -  714s
H    0     0                    1.308624e+08 1.3321e+08  1.80%     -  714s
     0     0 1.3321e+08    0 4856 1.3086e+08 1.3321e+08  1.80%     -  726s
     0     0 1.3321e+08    0 5859 1.3086e+08 1.3321e+08  1.80%     -  815s
     0     0 1.3321e+08    0 5859 1.3086e+08 1.3321e+08  1.80%     -  817s
     0     0 1.3321e+08    0 5855 1.3086e+08 1.3321e+08  1.80%     -  817s
H    0     0                    1.308631e+08 1.3321e+08  1.80%     -  900s
     0     2 1.3321e+08    0 5849 1.3086e+08 1.3321e+08  1.80%     -  905s
     1     3 1.3321e+08    1 4879 1.3086e+08 1.3321e+08  1.80% 17944  916s
     2     4 1.3321e+08    1 5007 1.3086e+08 1.3321e+08  1.80% 93085 1025s
H    3     6                    1.309119e+08 1.3321e+08  1.76% 62057 1133s
     5    12 1.3321e+08    3 4646 1.3091e+08 1.3321e+08  1.76% 75403 1326s
H    6    12                    1.309464e+08 1.3321e+08  1.73% 62836 1326s
    11    17 1.3321e+08    4 4403 1.3095e+08 1.3321e+08  1.73% 87182 3600s

Cutting planes:
  Gomory: 1
  MIR: 19
  Flow cover: 44
  Zero half: 4
  RLT: 3836
  Relax-and-lift: 43

Explored 16 nodes (2061103 simplex iterations) in 3600.07 seconds (5500.22 work units)
Thread count was 20 (of 20 available processors)

Solution count 10: 1.30946e+08 1.30912e+08 1.30863e+08 ... 1.3082e+08

Time limit reached
Best objective 1.309463874841e+08, best bound 1.332129225164e+08, gap 1.7309%
